* ENCODING=ISO-8859-1
NAME          CPLEX
ROWS
 N  obj1    
 G  c1      
 G  c2      
 G  c3      
 G  c4      
 G  c5      
 G  c6      
 G  c7      
 G  c8      
 G  c9      
 G  c10     
 G  c11     
 G  c12     
 G  c13     
 G  c14     
 G  c15     
 G  c16     
 G  c17     
 G  c18     
 G  c19     
 G  c20     
 G  c21     
 G  c22     
 G  c23     
 G  c24     
 G  c25     
 G  c26     
 G  c27     
 G  c28     
 G  c29     
 G  c30     
COLUMNS
    MARK0000  'MARKER'                 'INTORG'
    x1        obj1                            1
    x1        c3                            870
    x1        c4                            146
    x1        c6                            758
    x1        c13                           374
    x1        c22                           482
    x2        obj1                            1
    x2        c1                            505
    x3        obj1                            1
    x3        c20                           107
    x3        c28                           993
    x4        obj1                            1
    x4        c2                            994
    x4        c7                            438
    x4        c17                           786
    x4        c30                           283
    x5        obj1                            1
    x6        obj1                            1
    x6        c1                            631
    x6        c13                           765
    x6        c20                           280
    x7        obj1                            1
    x7        c20                           599
    x7        c27                           985
    x8        obj1                            1
    x8        c16                           931
    x9        obj1                            1
    x9        c1                            760
    x9        c3                            174
    x9        c24                           266
    x10       obj1                            1
    x10       c12                           347
    x10       c21                           310
    x10       c24                           457
    x10       c26                           854
    x10       c27                           960
    x11       obj1                            1
    x11       c9                            511
    x11       c18                           291
    x11       c22                           661
    x11       c25                           172
    x11       c26                           888
    x12       obj1                            1
    x12       c6                            884
    x12       c18                           610
    x12       c21                           315
    x12       c29                           281
    x13       obj1                            1
    x13       c18                           547
    x13       c21                           793
    x14       obj1                            1
    x14       c16                           340
    x14       c26                           577
    x15       obj1                            1
    x15       c11                           434
    x15       c16                           640
    x15       c26                           592
    x16       obj1                            1
    x16       c17                           133
    x16       c21                           964
    x16       c26                           583
    x17       obj1                            1
    x17       c4                            811
    x18       obj1                            1
    x18       c2                            874
    x19       obj1                            1
    x19       c8                            282
    x19       c10                           429
    x19       c16                           752
    x19       c21                           763
    x20       obj1                            1
    x20       c3                            481
    x20       c5                            196
    x20       c6                            539
    x20       c9                            319
    x20       c16                           607
    x21       obj1                            1
    x21       c29                           653
    x22       obj1                            1
    x22       c4                            491
    x22       c18                           880
    x22       c19                           446
    x23       obj1                            1
    x23       c29                           782
    x24       obj1                            1
    x24       c9                            692
    x24       c24                           296
    x25       obj1                            1
    x25       c1                            962
    x25       c9                            631
    x25       c11                           550
    x25       c19                           448
    x25       c30                           443
    x26       obj1                            1
    x26       c5                            723
    x26       c6                            810
    x26       c17                           305
    x27       obj1                            1
    x27       c5                            748
    x27       c11                           451
    x27       c17                           524
    x27       c23                           942
    x28       obj1                            1
    x28       c11                           997
    x28       c12                           678
    x28       c16                           187
    x28       c20                           884
    x28       c25                           502
    x29       obj1                            1
    x29       c3                            491
    x29       c7                            613
    x29       c23                           249
    x29       c25                           174
    x30       obj1                            1
    x30       c15                           438
    x30       c22                           919
    x30       c24                           324
    x30       c25                           268
    x31       obj1                            1
    x31       c16                           889
    x32       obj1                            1
    x32       c1                            756
    x32       c8                            637
    x32       c9                            448
    x32       c21                           514
    x33       obj1                            1
    x33       c6                            886
    x33       c13                           228
    x33       c20                           838
    x34       obj1                            1
    x34       c28                           480
    x35       obj1                            1
    x35       c13                           632
    x36       obj1                            1
    x36       c5                            230
    x36       c17                           902
    x37       obj1                            1
    x37       c3                            693
    x37       c13                           844
    x37       c14                           444
    x37       c15                           110
    x38       obj1                            1
    x38       c12                           673
    x38       c26                           274
    x38       c28                           556
    x39       obj1                            1
    x39       c8                            869
    x39       c9                            335
    x39       c16                           908
    x39       c25                           561
    x39       c26                           581
    x40       obj1                            1
    x40       c8                            942
    x40       c19                           866
    x41       obj1                            1
    x41       c1                            626
    x41       c2                            785
    x41       c3                            943
    x41       c7                            338
    x41       c13                           299
    x41       c17                           338
    x41       c21                           905
    x41       c25                           955
    x42       obj1                            1
    x42       c12                           366
    x43       obj1                            1
    x43       c8                            992
    x43       c16                           518
    x44       obj1                            1
    x44       c14                           253
    x44       c22                           539
    x45       obj1                            1
    x45       c5                            480
    x45       c9                            786
    x45       c15                           920
    x45       c19                           476
    x45       c27                           792
    x46       obj1                            1
    x46       c18                           133
    x46       c21                           980
    x47       obj1                            1
    x47       c2                            197
    x47       c7                            334
    x47       c18                           421
    x47       c19                           104
    x47       c23                           193
    x48       obj1                            1
    x48       c2                            393
    x48       c13                           598
    x48       c20                           589
    x49       obj1                            1
    x49       c28                           541
    x50       obj1                            1
    x50       c4                            632
    x50       c5                            912
    x50       c10                           585
    x50       c11                           376
    x50       c12                           804
    x50       c14                           649
    x51       obj1                            1
    x51       c5                            107
    x51       c11                           586
    x52       obj1                            1
    x52       c6                            791
    x53       obj1                            1
    x53       c1                            922
    x53       c4                            818
    x53       c6                            217
    x53       c30                           573
    x54       obj1                            1
    x54       c27                           875
    x55       obj1                            1
    x55       c3                            192
    x55       c18                           591
    x55       c27                           299
    x56       obj1                            1
    x56       c10                           544
    x56       c20                           460
    x56       c21                           549
    x56       c22                           310
    x56       c29                           768
    x57       obj1                            1
    x57       c2                            755
    x57       c7                            469
    x57       c9                            168
    x57       c11                           288
    x57       c23                           564
    x57       c26                           367
    x58       obj1                            1
    x58       c3                            806
    x58       c4                            703
    x58       c22                           561
    x58       c25                           794
    x59       obj1                            1
    x59       c2                            154
    x59       c4                            204
    x59       c9                            252
    x59       c17                           893
    x59       c20                           854
    x59       c26                           610
    x59       c27                           609
    x60       obj1                            1
    x60       c2                            988
    x60       c4                            299
    x60       c6                            794
    x60       c25                           522
    MARK0001  'MARKER'                 'INTEND'
RHS
    rhs       c1                           2581
    rhs       c2                           2570
    rhs       c3                           2325
    rhs       c4                           2052
    rhs       c5                           1698
    rhs       c6                           2840
    rhs       c7                           1096
    rhs       c8                           1861
    rhs       c9                           2071
    rhs       c10                           779
    rhs       c11                          1841
    rhs       c12                          1434
    rhs       c13                          1870
    rhs       c14                           673
    rhs       c15                           734
    rhs       c16                          2886
    rhs       c17                          1941
    rhs       c18                          1737
    rhs       c19                          1170
    rhs       c20                          2306
    rhs       c21                          3047
    rhs       c22                          1736
    rhs       c23                           974
    rhs       c24                           672
    rhs       c25                          1974
    rhs       c26                          2663
    rhs       c27                          2260
    rhs       c28                          1285
    rhs       c29                          1242
    rhs       c30                           650
BOUNDS
 LI bnd       x1        0
 LI bnd       x2        0
 LI bnd       x3        0
 LI bnd       x4        0
 LI bnd       x5        0
 LI bnd       x6        0
 LI bnd       x7        0
 LI bnd       x8        0
 LI bnd       x9        0
 LI bnd       x10       0
 LI bnd       x11       0
 LI bnd       x12       0
 LI bnd       x13       0
 LI bnd       x14       0
 LI bnd       x15       0
 LI bnd       x16       0
 LI bnd       x17       0
 LI bnd       x18       0
 LI bnd       x19       0
 LI bnd       x20       0
 LI bnd       x21       0
 LI bnd       x22       0
 LI bnd       x23       0
 LI bnd       x24       0
 LI bnd       x25       0
 LI bnd       x26       0
 LI bnd       x27       0
 LI bnd       x28       0
 LI bnd       x29       0
 LI bnd       x30       0
 LI bnd       x31       0
 LI bnd       x32       0
 LI bnd       x33       0
 LI bnd       x34       0
 LI bnd       x35       0
 LI bnd       x36       0
 LI bnd       x37       0
 LI bnd       x38       0
 LI bnd       x39       0
 LI bnd       x40       0
 LI bnd       x41       0
 LI bnd       x42       0
 LI bnd       x43       0
 LI bnd       x44       0
 LI bnd       x45       0
 LI bnd       x46       0
 LI bnd       x47       0
 LI bnd       x48       0
 LI bnd       x49       0
 LI bnd       x50       0
 LI bnd       x51       0
 LI bnd       x52       0
 LI bnd       x53       0
 LI bnd       x54       0
 LI bnd       x55       0
 LI bnd       x56       0
 LI bnd       x57       0
 LI bnd       x58       0
 LI bnd       x59       0
 LI bnd       x60       0
ENDATA
